unsat
(:max-memory         18.52
 :memory             18.43
 :nlsat-arith-var    3
 :nlsat-atoms        5
 :nlsat-bool-var     1
 :nlsat-clauses      5
 :nlsat-conflicts    1
 :nlsat-propagations 2
 :nlsat-stages       2
 :num-allocs         65009
 :rlimit-count       11335
 :time               0.01
 :total-time         0.02)
